(set-logic QF_UF)
(declare-fun A0 () Bool)
(declare-fun A1 () Bool)
(declare-fun A2 () Bool)
(declare-fun A3 () Bool)
(declare-fun A4 () Bool)
(declare-fun A5 () Bool)
(declare-fun A6 () Bool)
(declare-fun A7 () Bool)
(declare-fun A8 () Bool)
(declare-fun A9 () Bool)
(declare-fun A10 () Bool)
(declare-fun A11 () Bool)
(declare-fun A12 () Bool)
(declare-fun A13 () Bool)
(declare-fun A14 () Bool)
(declare-fun A15 () Bool)
(declare-fun A16 () Bool)
(declare-fun A17 () Bool)
(declare-fun A18 () Bool)
(declare-fun A19 () Bool)
(declare-fun A20 () Bool)
(declare-fun A21 () Bool)
(declare-fun A22 () Bool)
(declare-fun A23 () Bool)
(declare-fun A24 () Bool)
(assert (let ((.def_0 (or A23 A21))) (let ((.def_1 (not A20))) (let ((.def_2 (not A21))) (let ((.def_3 (or .def_2 .def_1))) (let ((.def_4 (and .def_3 .def_0))) (let ((.def_5 (or A5 A21))) (let ((.def_6 (not .def_5))) (let ((.def_7 (not A5))) (let ((.def_8 (not A3))) (let ((.def_9 (and .def_8 .def_7))) (let ((.def_10 (and .def_9 .def_6))) (let ((.def_11 (and .def_10 .def_4))) (let ((.def_12 (not .def_11))) (let ((.def_13 (not A4))) (let ((.def_14 (or .def_13 A17))) (let ((.def_15 (not A23))) (let ((.def_16 (not A6))) (let ((.def_17 (or .def_16 .def_15))) (let ((.def_18 (and .def_17 .def_14))) (let ((.def_19 (not .def_18))) (let ((.def_20 (not A13))) (let ((.def_21 (or .def_8 .def_20))) (let ((.def_22 (not .def_21))) (let ((.def_23 (not A17))) (let ((.def_24 (not A8))) (let ((.def_25 (or .def_24 .def_23))) (let ((.def_26 (not .def_25))) (let ((.def_27 (and .def_26 .def_22))) (let ((.def_28 (or .def_27 .def_19))) (let ((.def_29 (not .def_28))) (let ((.def_30 (or .def_29 .def_12))) (let ((.def_31 (and .def_15 A13))) (let ((.def_32 (not .def_31))) (let ((.def_33 (not A10))) (let ((.def_34 (not A19))) (let ((.def_35 (and .def_34 .def_33))) (let ((.def_36 (not .def_35))) (let ((.def_37 (and .def_36 .def_32))) (let ((.def_38 (not .def_37))) (let ((.def_39 (not A11))) (let ((.def_40 (or .def_39 A17))) (let ((.def_41 (and .def_13 A7))) (let ((.def_42 (not .def_41))) (let ((.def_43 (= .def_42 .def_40))) (let ((.def_44 (and .def_43 .def_38))) (let ((.def_45 (or .def_33 A0))) (let ((.def_46 (not .def_45))) (let ((.def_47 (not A22))) (let ((.def_48 (or .def_47 .def_15))) (let ((.def_49 (not .def_48))) (let ((.def_50 (and .def_49 .def_46))) (let ((.def_51 (not .def_50))) (let ((.def_52 (not A14))) (let ((.def_53 (and .def_52 A14))) (let ((.def_54 (and A11 .def_20))) (let ((.def_55 (= .def_54 .def_53))) (let ((.def_56 (or .def_55 .def_51))) (let ((.def_57 (= .def_56 .def_44))) (let ((.def_58 (or .def_57 .def_30))) (let ((.def_59 (not A15))) (let ((.def_60 (and A2 .def_59))) (let ((.def_61 (or A22 .def_2))) (let ((.def_62 (not .def_61))) (let ((.def_63 (or .def_62 .def_60))) (let ((.def_64 (not A24))) (let ((.def_65 (or .def_64 .def_13))) (let ((.def_66 (or A3 A17))) (let ((.def_67 (or .def_66 .def_65))) (let ((.def_68 (or .def_67 .def_63))) (let ((.def_69 (and A12 A19))) (let ((.def_70 (not .def_69))) (let ((.def_71 (not A16))) (let ((.def_72 (and A21 .def_71))) (let ((.def_73 (and .def_72 .def_70))) (let ((.def_74 (not .def_73))) (let ((.def_75 (not A2))) (let ((.def_76 (and .def_75 A17))) (let ((.def_77 (not .def_76))) (let ((.def_78 (and .def_24 A12))) (let ((.def_79 (not .def_78))) (let ((.def_80 (or .def_79 .def_77))) (let ((.def_81 (and .def_80 .def_74))) (let ((.def_82 (not .def_81))) (let ((.def_83 (= .def_82 .def_68))) (let ((.def_84 (or .def_7 .def_2))) (let ((.def_85 (not .def_84))) (let ((.def_86 (or .def_39 .def_8))) (let ((.def_87 (not .def_86))) (let ((.def_88 (or .def_87 .def_85))) (let ((.def_89 (not .def_88))) (let ((.def_90 (= A15 .def_64))) (let ((.def_91 (= A17 A19))) (let ((.def_92 (not .def_91))) (let ((.def_93 (or .def_92 .def_90))) (let ((.def_94 (not .def_93))) (let ((.def_95 (or .def_94 .def_89))) (let ((.def_96 (and A18 .def_39))) (let ((.def_97 (not .def_96))) (let ((.def_98 (not A7))) (let ((.def_99 (or A20 .def_98))) (let ((.def_100 (not .def_99))) (let ((.def_101 (or .def_100 .def_97))) (let ((.def_102 (and A11 A1))) (let ((.def_103 (not .def_102))) (let ((.def_104 (or A16 A15))) (let ((.def_105 (not .def_104))) (let ((.def_106 (= .def_105 .def_103))) (let ((.def_107 (and .def_106 .def_101))) (let ((.def_108 (and .def_107 .def_95))) (let ((.def_109 (not .def_108))) (let ((.def_110 (and .def_109 .def_83))) (let ((.def_111 (and .def_110 .def_58))) (let ((.def_112 (not .def_111))) (let ((.def_113 (= .def_1 .def_98))) (let ((.def_114 (not .def_113))) (let ((.def_115 (or A18 .def_39))) (let ((.def_116 (or .def_115 .def_114))) (let ((.def_117 (not .def_116))) (let ((.def_118 (not A0))) (let ((.def_119 (and A14 .def_118))) (let ((.def_120 (and A0 .def_23))) (let ((.def_121 (and .def_120 .def_119))) (let ((.def_122 (not .def_121))) (let ((.def_123 (and .def_122 .def_117))) (let ((.def_124 (not .def_123))) (let ((.def_125 (= .def_118 .def_118))) (let ((.def_126 (and A18 .def_15))) (let ((.def_127 (not .def_126))) (let ((.def_128 (or .def_127 .def_125))) (let ((.def_129 (or .def_118 A8))) (let ((.def_130 (and .def_23 A1))) (let ((.def_131 (and .def_130 .def_129))) (let ((.def_132 (not .def_131))) (let ((.def_133 (and .def_132 .def_128))) (let ((.def_134 (and .def_133 .def_124))) (let ((.def_135 (not .def_134))) (let ((.def_136 (and .def_98 A11))) (let ((.def_137 (not A1))) (let ((.def_138 (or .def_39 .def_137))) (let ((.def_139 (not .def_138))) (let ((.def_140 (and .def_139 .def_136))) (let ((.def_141 (or A2 A10))) (let ((.def_142 (not .def_141))) (let ((.def_143 (or A3 A22))) (let ((.def_144 (not .def_143))) (let ((.def_145 (or .def_144 .def_142))) (let ((.def_146 (not .def_145))) (let ((.def_147 (or .def_146 .def_140))) (let ((.def_148 (not .def_147))) (let ((.def_149 (or .def_23 .def_34))) (let ((.def_150 (and A8 .def_64))) (let ((.def_151 (not .def_150))) (let ((.def_152 (or .def_151 .def_149))) (let ((.def_153 (not .def_152))) (let ((.def_154 (or .def_34 .def_20))) (let ((.def_155 (not .def_154))) (let ((.def_156 (or A2 .def_33))) (let ((.def_157 (not .def_156))) (let ((.def_158 (or .def_157 .def_155))) (let ((.def_159 (or .def_158 .def_153))) (let ((.def_160 (not .def_159))) (let ((.def_161 (and .def_160 .def_148))) (let ((.def_162 (and .def_161 .def_135))) (let ((.def_163 (or .def_75 .def_75))) (let ((.def_164 (not .def_163))) (let ((.def_165 (or .def_52 A18))) (let ((.def_166 (or .def_165 .def_164))) (let ((.def_167 (and .def_1 A17))) (let ((.def_168 (and A18 A4))) (let ((.def_169 (and .def_168 .def_167))) (let ((.def_170 (or .def_169 .def_166))) (let ((.def_171 (not .def_170))) (let ((.def_172 (and A8 .def_47))) (let ((.def_173 (and A2 A23))) (let ((.def_174 (not .def_173))) (let ((.def_175 (= .def_174 .def_172))) (let ((.def_176 (= A21 A8))) (let ((.def_177 (= .def_8 A3))) (let ((.def_178 (not .def_177))) (let ((.def_179 (and .def_178 .def_176))) (let ((.def_180 (or .def_179 .def_175))) (let ((.def_181 (not .def_180))) (let ((.def_182 (or .def_181 .def_171))) (let ((.def_183 (and A13 A2))) (let ((.def_184 (not .def_183))) (let ((.def_185 (and .def_24 A20))) (let ((.def_186 (and .def_185 .def_184))) (let ((.def_187 (and A22 .def_2))) (let ((.def_188 (or .def_24 A1))) (let ((.def_189 (and .def_188 .def_187))) (let ((.def_190 (and .def_189 .def_186))) (let ((.def_191 (and .def_75 A5))) (let ((.def_192 (and .def_64 A1))) (let ((.def_193 (not .def_192))) (let ((.def_194 (and .def_193 .def_191))) (let ((.def_195 (not .def_194))) (let ((.def_196 (or .def_64 A13))) (let ((.def_197 (not .def_196))) (let ((.def_198 (and .def_98 .def_39))) (let ((.def_199 (= .def_198 .def_197))) (let ((.def_200 (not .def_199))) (let ((.def_201 (or .def_200 .def_195))) (let ((.def_202 (or .def_201 .def_190))) (let ((.def_203 (not .def_202))) (let ((.def_204 (or .def_203 .def_182))) (let ((.def_205 (and .def_204 .def_162))) (let ((.def_206 (not .def_205))) (let ((.def_207 (and .def_206 .def_112))) (let ((.def_208 (not .def_207))) (let ((.def_209 (or A0 .def_59))) (let ((.def_210 (or A17 .def_137))) (let ((.def_211 (or .def_210 .def_209))) (let ((.def_212 (not .def_211))) (let ((.def_213 (or .def_1 .def_52))) (let ((.def_214 (or .def_34 .def_64))) (let ((.def_215 (or .def_214 .def_213))) (let ((.def_216 (not .def_215))) (let ((.def_217 (and .def_216 .def_212))) (let ((.def_218 (not .def_217))) (let ((.def_219 (not A12))) (let ((.def_220 (or .def_71 .def_219))) (let ((.def_221 (not .def_220))) (let ((.def_222 (and A22 A24))) (let ((.def_223 (or .def_222 .def_221))) (let ((.def_224 (not A18))) (let ((.def_225 (and .def_224 .def_33))) (let ((.def_226 (and A17 .def_33))) (let ((.def_227 (or .def_226 .def_225))) (let ((.def_228 (not .def_227))) (let ((.def_229 (and .def_228 .def_223))) (let ((.def_230 (= .def_229 .def_218))) (let ((.def_231 (or .def_1 .def_71))) (let ((.def_232 (not .def_231))) (let ((.def_233 (or A6 A16))) (let ((.def_234 (or .def_233 .def_232))) (let ((.def_235 (not .def_234))) (let ((.def_236 (and .def_1 A12))) (let ((.def_237 (or A6 .def_52))) (let ((.def_238 (not .def_237))) (let ((.def_239 (and .def_238 .def_236))) (let ((.def_240 (or .def_239 .def_235))) (let ((.def_241 (and A1 .def_33))) (let ((.def_242 (not .def_241))) (let ((.def_243 (or .def_118 .def_224))) (let ((.def_244 (not .def_243))) (let ((.def_245 (or .def_244 .def_242))) (let ((.def_246 (and A5 A16))) (let ((.def_247 (and A16 A18))) (let ((.def_248 (or .def_247 .def_246))) (let ((.def_249 (and .def_248 .def_245))) (let ((.def_250 (and .def_249 .def_240))) (let ((.def_251 (not .def_250))) (let ((.def_252 (or .def_251 .def_230))) (let ((.def_253 (= A3 A16))) (let ((.def_254 (not A9))) (let ((.def_255 (or .def_254 .def_224))) (let ((.def_256 (not .def_255))) (let ((.def_257 (or .def_256 .def_253))) (let ((.def_258 (or .def_52 .def_98))) (let ((.def_259 (not .def_258))) (let ((.def_260 (or A15 A22))) (let ((.def_261 (and .def_260 .def_259))) (let ((.def_262 (not .def_261))) (let ((.def_263 (or .def_262 .def_257))) (let ((.def_264 (or .def_71 .def_71))) (let ((.def_265 (and .def_64 A2))) (let ((.def_266 (or .def_265 .def_264))) (let ((.def_267 (not .def_266))) (let ((.def_268 (or A1 .def_254))) (let ((.def_269 (and .def_224 A8))) (let ((.def_270 (or .def_269 .def_268))) (let ((.def_271 (or .def_270 .def_267))) (let ((.def_272 (not .def_271))) (let ((.def_273 (and .def_272 .def_263))) (let ((.def_274 (and .def_219 .def_2))) (let ((.def_275 (or A8 A17))) (let ((.def_276 (and .def_275 .def_274))) (let ((.def_277 (not .def_276))) (let ((.def_278 (and .def_219 A11))) (let ((.def_279 (and .def_224 .def_16))) (let ((.def_280 (= .def_279 .def_278))) (let ((.def_281 (and .def_280 .def_277))) (let ((.def_282 (and A20 A17))) (let ((.def_283 (not .def_282))) (let ((.def_284 (or .def_24 .def_15))) (let ((.def_285 (or .def_284 .def_283))) (let ((.def_286 (or .def_254 A11))) (let ((.def_287 (or .def_13 .def_75))) (let ((.def_288 (not .def_287))) (let ((.def_289 (and .def_288 .def_286))) (let ((.def_290 (or .def_289 .def_285))) (let ((.def_291 (not .def_290))) (let ((.def_292 (and .def_291 .def_281))) (let ((.def_293 (not .def_292))) (let ((.def_294 (or .def_293 .def_273))) (let ((.def_295 (and .def_294 .def_252))) (let ((.def_296 (not .def_295))) (let ((.def_297 (or .def_34 .def_33))) (let ((.def_298 (and A10 .def_75))) (let ((.def_299 (and .def_298 .def_297))) (let ((.def_300 (not .def_299))) (let ((.def_301 (or .def_8 A20))) (let ((.def_302 (or .def_15 .def_64))) (let ((.def_303 (or .def_302 .def_301))) (let ((.def_304 (not .def_303))) (let ((.def_305 (and .def_304 .def_300))) (let ((.def_306 (not .def_305))) (let ((.def_307 (and A8 .def_219))) (let ((.def_308 (and A7 .def_2))) (let ((.def_309 (not .def_308))) (let ((.def_310 (and .def_309 .def_307))) (let ((.def_311 (= .def_71 A4))) (let ((.def_312 (and .def_39 .def_8))) (let ((.def_313 (or .def_312 .def_311))) (let ((.def_314 (or .def_313 .def_310))) (let ((.def_315 (not .def_314))) (let ((.def_316 (and .def_315 .def_306))) (let ((.def_317 (not .def_316))) (let ((.def_318 (or A8 .def_118))) (let ((.def_319 (not .def_318))) (let ((.def_320 (and A13 A3))) (let ((.def_321 (and .def_320 .def_319))) (let ((.def_322 (and .def_98 .def_13))) (let ((.def_323 (not .def_322))) (let ((.def_324 (or .def_224 A0))) (let ((.def_325 (not .def_324))) (let ((.def_326 (or .def_325 .def_323))) (let ((.def_327 (or .def_326 .def_321))) (let ((.def_328 (or A4 .def_2))) (let ((.def_329 (not .def_328))) (let ((.def_330 (or .def_219 A14))) (let ((.def_331 (not .def_330))) (let ((.def_332 (and .def_331 .def_329))) (let ((.def_333 (not .def_332))) (let ((.def_334 (or A16 .def_8))) (let ((.def_335 (= .def_2 .def_224))) (let ((.def_336 (and .def_335 .def_334))) (let ((.def_337 (= .def_336 .def_333))) (let ((.def_338 (not .def_337))) (let ((.def_339 (= .def_338 .def_327))) (let ((.def_340 (and .def_339 .def_317))) (let ((.def_341 (or A14 A16))) (let ((.def_342 (not .def_341))) (let ((.def_343 (and A24 .def_75))) (let ((.def_344 (or .def_343 .def_342))) (let ((.def_345 (not .def_344))) (let ((.def_346 (or A21 .def_64))) (let ((.def_347 (or A2 .def_15))) (let ((.def_348 (or .def_347 .def_346))) (let ((.def_349 (and .def_348 .def_345))) (let ((.def_350 (and .def_16 A15))) (let ((.def_351 (not .def_350))) (let ((.def_352 (or .def_20 .def_24))) (let ((.def_353 (not .def_352))) (let ((.def_354 (and .def_353 .def_351))) (let ((.def_355 (or A14 A0))) (let ((.def_356 (not .def_355))) (let ((.def_357 (and .def_47 A10))) (let ((.def_358 (not .def_357))) (let ((.def_359 (or .def_358 .def_356))) (let ((.def_360 (and .def_359 .def_354))) (let ((.def_361 (or .def_360 .def_349))) (let ((.def_362 (and .def_47 .def_47))) (let ((.def_363 (or A14 A12))) (let ((.def_364 (not .def_363))) (let ((.def_365 (or .def_364 .def_362))) (let ((.def_366 (= A13 .def_24))) (let ((.def_367 (not .def_366))) (let ((.def_368 (or .def_75 .def_7))) (let ((.def_369 (or .def_368 .def_367))) (let ((.def_370 (and .def_369 .def_365))) (let ((.def_371 (and .def_8 .def_254))) (let ((.def_372 (not .def_371))) (let ((.def_373 (or A8 .def_33))) (let ((.def_374 (not .def_373))) (let ((.def_375 (or .def_374 .def_372))) (let ((.def_376 (and .def_34 .def_20))) (let ((.def_377 (and .def_13 A15))) (let ((.def_378 (not .def_377))) (let ((.def_379 (or .def_378 .def_376))) (let ((.def_380 (or .def_379 .def_375))) (let ((.def_381 (not .def_380))) (let ((.def_382 (or .def_381 .def_370))) (let ((.def_383 (or .def_382 .def_361))) (let ((.def_384 (not .def_383))) (let ((.def_385 (= .def_384 .def_340))) (let ((.def_386 (or .def_385 .def_296))) (let ((.def_387 (and .def_386 .def_208))) .def_387)))))))))))))))))))))))))))))))))))))))))))))))))))))))))))))))))))))))))))))))))))))))))))))))))))))))))))))))))))))))))))))))))))))))))))))))))))))))))))))))))))))))))))))))))))))))))))))))))))))))))))))))))))))))))))))))))))))))))))))))))))))))))))))))))))))))))))))))))))))))))))))))))))))))))))))))))))))))))))))))))))))))))))))))))))))))))))))))))))))))))))))))))))))))))))))))))))))
(check-sat)
